\* Meal_plan *\
Minimize
OBJ: 260 x1 + 20 x10 + 80 x11 + 100 x12 + 130 x13 + 90 x14 + 150 x15 + 150 x16
 + 124 x17 + 35 x18 + 250 x19 + 250 x2 + 10 x20 + 260 x21 + 260 x22 + 260 x23
 + 45 x24 + 20 x25 + 30 x26 + 150 x27 + 150 x28 + 124 x29 + 101 x3 + 150 x30
 + 100 x31 + 35 x32 + 124 x33 + 150 x34 + 150 x35 + 145 x36 + 50 x4 + 66 x5
 + 100 x6 + 50 x7 + 45 x8 + 16 x9
Subject To
_C1: 8 x1 + 0.1 x10 + 2.4 x11 + 2.6 x12 + 2.5 x13 + 0.9 x14 + 7.4 x15
 + 6.1 x16 + 2.3 x17 + 3 x18 + 2.1 x2 + 2.1 x20 + 8 x21 + 6.2 x22 + 4.3 x23
 + 2.8 x24 + 0.1 x25 + x26 + 4 x27 + 1.9 x28 + 2.8 x29 + 1.3 x3 + 6.1 x30
 + x31 + 3 x32 + 2.6 x33 + 5.6 x34 + 7.4 x35 + 0.9 x36 + 6.3 x4 + 6.8 x5
 + 11.7 x6 + 10 x7 + 2.8 x8 + 3.5 x9 <= 120
_C10: 73 x14 + 180 x15 + 127 x16 + 121 x17 + 85 x18 + 35 x19 + 33 x20 >= 610
_C11: 168 x21 + 229 x22 + 102 x23 + 157 x24 + 57 x25 + 70 x26 <= 366
_C12: 168 x21 + 229 x22 + 102 x23 + 157 x24 + 57 x25 + 70 x26 >= 244
_C13: 129 x27 + 132 x28 + 127 x29 + 127 x30 + 36 x31 + 85 x32 + 120 x33
 + 115 x34 + 304 x35 + 46 x36 <= 732
_C14: 129 x27 + 132 x28 + 127 x29 + 127 x30 + 36 x31 + 85 x32 + 120 x33
 + 115 x34 + 304 x35 + 46 x36 >= 610
_C15: 260 x1 + 20 x10 + 80 x11 + 100 x12 + 130 x13 + 250 x2 + 101 x3 + 50 x4
 + 66 x5 + 100 x6 + 50 x7 + 45 x8 + 16 x9 <= 900
_C16: 260 x1 + 20 x10 + 80 x11 + 100 x12 + 130 x13 + 250 x2 + 101 x3 + 50 x4
 + 66 x5 + 100 x6 + 50 x7 + 45 x8 + 16 x9 >= 300
_C17: 90 x14 + 150 x15 + 150 x16 + 124 x17 + 35 x18 + 250 x19 + 10 x20 <= 900
_C18: 90 x14 + 150 x15 + 150 x16 + 124 x17 + 35 x18 + 250 x19 + 10 x20 >= 300
_C19: 260 x21 + 260 x22 + 260 x23 + 45 x24 + 20 x25 + 30 x26 <= 900
_C2: 8 x1 + 0.1 x10 + 2.4 x11 + 2.6 x12 + 2.5 x13 + 0.9 x14 + 7.4 x15
 + 6.1 x16 + 2.3 x17 + 3 x18 + 2.1 x2 + 2.1 x20 + 8 x21 + 6.2 x22 + 4.3 x23
 + 2.8 x24 + 0.1 x25 + x26 + 4 x27 + 1.9 x28 + 2.8 x29 + 1.3 x3 + 6.1 x30
 + x31 + 3 x32 + 2.6 x33 + 5.6 x34 + 7.4 x35 + 0.9 x36 + 6.3 x4 + 6.8 x5
 + 11.7 x6 + 10 x7 + 2.8 x8 + 3.5 x9 >= 60
_C20: 260 x21 + 260 x22 + 260 x23 + 45 x24 + 20 x25 + 30 x26 >= 300
_C21: 150 x27 + 150 x28 + 124 x29 + 150 x30 + 100 x31 + 35 x32 + 124 x33
 + 150 x34 + 150 x35 + 145 x36 <= 900
_C22: 150 x27 + 150 x28 + 124 x29 + 150 x30 + 100 x31 + 35 x32 + 124 x33
 + 150 x34 + 150 x35 + 145 x36 >= 300
_C23: x1 + x2 + x21 <= 1
_C24: x3 + x4 + x5 + x6 <= 3
_C25: x10 - x8 + x9 <= 0
_C26: x14 + x15 + x16 - x17 - 0.67 x18 <= 0
_C27: x14 + x15 + x16 - x17 - 0.33 x18 >= 0
_C28: - x24 + x25 <= 0
_C29: x27 + x28 - x29 + x30 - 0.67 x32 - x33 <= 0
_C3: 10.3 x1 + 0.2 x11 + 1.5 x12 + 9.6 x13 + 0.3 x14 + 6.1 x15 + 4.1 x16
 + 2.2 x17 + 0.4 x18 + 0.1 x20 + 10.3 x21 + 12 x22 + 4.4 x23 + 7.9 x24
 + 4.4 x26 + 3.8 x27 + 9.6 x28 + 0.9 x29 + 0.3 x3 + 4.1 x30 + 0.7 x31
 + 0.4 x32 + 0.4 x33 + 3.1 x34 + 11.2 x35 + 0.2 x36 + 5.3 x4 + 11.1 x5
 + 16.6 x6 + 0.3 x7 + 7.9 x8 + 8 x9 <= 150
_C30: x27 + x28 - x29 + x30 - 0.33 x32 - x33 >= 0
_C31: x35 + x36 <= 2
_C4: 10.3 x1 + 0.2 x11 + 1.5 x12 + 9.6 x13 + 0.3 x14 + 6.1 x15 + 4.1 x16
 + 2.2 x17 + 0.4 x18 + 0.1 x20 + 10.3 x21 + 12 x22 + 4.4 x23 + 7.9 x24
 + 4.4 x26 + 3.8 x27 + 9.6 x28 + 0.9 x29 + 0.3 x3 + 4.1 x30 + 0.7 x31
 + 0.4 x32 + 0.4 x33 + 3.1 x34 + 11.2 x35 + 0.2 x36 + 5.3 x4 + 11.1 x5
 + 16.6 x6 + 0.3 x7 + 7.9 x8 + 8 x9 >= 30
_C5: 168 x1 + 57 x10 + 24 x11 + 130 x12 + 247 x13 + 73 x14 + 180 x15 + 127 x16
 + 121 x17 + 85 x18 + 35 x19 + 115 x2 + 33 x20 + 168 x21 + 229 x22 + 102 x23
 + 157 x24 + 57 x25 + 70 x26 + 129 x27 + 132 x28 + 127 x29 + 117 x3 + 127 x30
 + 36 x31 + 85 x32 + 120 x33 + 115 x34 + 304 x35 + 46 x36 + 77 x4 + 131 x5
 + 209 x6 + 175 x7 + 157 x8 + 95 x9 <= 2440
_C6: 168 x1 + 57 x10 + 24 x11 + 130 x12 + 247 x13 + 73 x14 + 180 x15 + 127 x16
 + 121 x17 + 85 x18 + 35 x19 + 115 x2 + 33 x20 + 168 x21 + 229 x22 + 102 x23
 + 157 x24 + 57 x25 + 70 x26 + 129 x27 + 132 x28 + 127 x29 + 117 x3 + 127 x30
 + 36 x31 + 85 x32 + 120 x33 + 115 x34 + 304 x35 + 46 x36 + 77 x4 + 131 x5
 + 209 x6 + 175 x7 + 157 x8 + 95 x9 >= 2318
_C7: 168 x1 + 57 x10 + 24 x11 + 130 x12 + 247 x13 + 115 x2 + 117 x3 + 77 x4
 + 131 x5 + 209 x6 + 175 x7 + 157 x8 + 95 x9 <= 732
_C8: 168 x1 + 57 x10 + 24 x11 + 130 x12 + 247 x13 + 115 x2 + 117 x3 + 77 x4
 + 131 x5 + 209 x6 + 175 x7 + 157 x8 + 95 x9 >= 610
_C9: 73 x14 + 180 x15 + 127 x16 + 121 x17 + 85 x18 + 35 x19 + 33 x20 <= 732
Bounds
0 <= x1 <= 3
0 <= x10 <= 3
0 <= x11 <= 3
0 <= x12 <= 3
0 <= x13 <= 3
0 <= x14 <= 3
0 <= x15 <= 3
0 <= x16 <= 3
0 <= x17 <= 3
0 <= x18 <= 7
0 <= x19 <= 3
0 <= x2 <= 3
0 <= x20 <= 3
0 <= x21 <= 3
0 <= x22 <= 3
0 <= x23 <= 3
0 <= x24 <= 7
0 <= x25 <= 3
0 <= x26 <= 3
0 <= x27 <= 3
0 <= x28 <= 3
0 <= x29 <= 3
0 <= x3 <= 3
0 <= x30 <= 3
0 <= x31 <= 3
0 <= x32 <= 7
0 <= x33 <= 3
0 <= x34 <= 3
0 <= x35 <= 3
0 <= x36 <= 3
0 <= x4 <= 3
0 <= x5 <= 3
0 <= x6 <= 3
0 <= x7 <= 3
0 <= x8 <= 7
0 <= x9 <= 3
Generals
x1
x10
x11
x12
x13
x14
x15
x16
x17
x18
x19
x2
x20
x21
x22
x23
x24
x25
x26
x27
x28
x29
x3
x30
x31
x32
x33
x34
x35
x36
x4
x5
x6
x7
x8
x9
End
